\ Model knapsack_40_10_2
\ LP format - for model browsing. Use MPS format to capture full model detail.
\ Signature: 0x89753d213c2c14c
Minimize
  - 817 y[0] - 1091 y[1] - 413 y[2] - 876 y[3] - 1059 y[4] - 429 y[5]
   - 276 y[6] - 665 y[7] - 229 y[8] - 919 y[9] - 1011 y[10] - 286 y[11]
   - 534 y[12] - 807 y[13] - 173 y[14] - 513 y[15] - 574 y[16] - 940 y[17]
   - 363 y[18] - 656 y[19] - 885 y[20] - 316 y[21] - 164 y[22] - 520 y[23]
   - 429 y[24] - 504 y[25] - 213 y[26] - 151 y[27] - 814 y[28] - 420 y[29]
   - 854 y[30] - 753 y[31] - 1022 y[32] - 651 y[33] - 209 y[34]
   - 1047 y[35] - 106 y[36] - 120 y[37] - 527 y[38] - 239 y[39]
Subject To
 primal_upper: 717 y[0] + 991 y[1] + 313 y[2] + 776 y[3] + 959 y[4]
   + 329 y[5] + 176 y[6] + 565 y[7] + 129 y[8] + 819 y[9] + 911 y[10]
   + 186 y[11] + 434 y[12] + 707 y[13] + 73 y[14] + 413 y[15] + 474 y[16]
   + 840 y[17] + 263 y[18] + 556 y[19] + 785 y[20] + 216 y[21] + 64 y[22]
   + 420 y[23] + 329 y[24] + 404 y[25] + 113 y[26] + 51 y[27] + 714 y[28]
   + 320 y[29] + 754 y[30] + 653 y[31] + 922 y[32] + 551 y[33] + 109 y[34]
   + 947 y[35] + 6 y[36] + 20 y[37] + 427 y[38] + 139 y[39] + 72 z[0]
   + 99 z[1] + 31 z[2] + 78 z[3] + 96 z[4] + 33 z[5] + 18 z[6] + 56 z[7]
   + 13 z[8] + 82 z[9] + 91 z[10] + 19 z[11] + 43 z[12] + 71 z[13]
   + 7 z[14] + 41 z[15] + 47 z[16] + 84 z[17] + 26 z[18] + 56 z[19]
   + 78 z[20] + 22 z[21] + 6 z[22] + 42 z[23] + 33 z[24] + 40 z[25]
   + 11 z[26] + 5 z[27] + 71 z[28] + 32 z[29] + 75 z[30] + 65 z[31]
   + 92 z[32] + 55 z[33] + 11 z[34] + 95 z[35] + z[36] + 2 z[37] + 43 z[38]
   + 14 z[39] <= 6191
 primal_lower0: - y[0] - 9 y[1] - 5 y[2] - 15 y[3] - 24 y[4] - 3 y[5]
   - 4 y[6] - 6 y[7] - 10 y[8] - 3 y[9] - 7 y[10] - 12 y[11] - 23 y[12]
   - 7 y[13] - 16 y[14] - 13 y[15] - 21 y[16] - 21 y[17] - 23 y[18]
   - 2 y[19] - 15 y[20] - 4 y[21] - y[22] - 24 y[23] - 8 y[24] - 20 y[25]
   - 15 y[26] - 5 y[27] - 24 y[28] - 3 y[29] - 13 y[30] - 6 y[31] - 7 y[32]
   - 8 y[33] - 3 y[34] - 20 y[35] - 3 y[36] - 12 y[37] - 8 y[38] - 4 y[39]
   + 683 u[0] + 236 u[1] + 172 u[2] + 16 u[3] + 830 u[4] + 94 u[5]
   + 779 u[6] + 446 u[7] + 360 u[8] + 279 u[9] + 553 u[10] + 299 u[11]
   + 865 u[12] + 943 u[13] + 611 u[14] + 397 u[15] + 817 u[16] + 588 u[17]
   + 450 u[18] + 420 u[19] + 983 u[20] + 261 u[21] + 715 u[22] + 85 u[23]
   + 576 u[24] + 105 u[25] + 972 u[26] + 604 u[27] + 440 u[28] + 165 u[29]
   + 876 u[30] + 950 u[31] + 601 u[32] + 100 u[33] + 616 u[34] + 84 u[35]
   + 45 u[36] + 760 u[37] + 902 u[38] + 219 u[39] <= 983
 primal_lower1: - 22 y[0] - 107 y[1] - 155 y[2] - 44 y[3] - 88 y[4]
   - 18 y[5] - 6 y[6] - 24 y[7] - 67 y[8] - 58 y[9] - 9 y[10] - 97 y[11]
   - 76 y[12] - 64 y[13] - 70 y[14] - 86 y[15] - 145 y[16] - 41 y[17]
   - 2 y[18] - 109 y[19] - 126 y[20] - 100 y[21] - 82 y[22] - 129 y[23]
   - 54 y[24] - 29 y[25] - 2 y[26] - 153 y[27] - 126 y[28] - 150 y[29]
   - y[30] - 44 y[31] - 35 y[32] - 54 y[34] - 68 y[35] - 28 y[36]
   - 79 y[37] - 44 y[38] - 148 y[39] + 891 u[0] + 868 u[1] + 756 u[2]
   + 512 u[3] + 54 u[4] + 718 u[5] + 139 u[6] + 534 u[7] + 432 u[8]
   + 479 u[9] + 441 u[10] + 883 u[11] + 577 u[12] + 287 u[13] + 795 u[14]
   + 101 u[15] + 633 u[16] + 572 u[17] + 386 u[18] + 52 u[19] + 879 u[20]
   + 949 u[21] + 35 u[22] + 757 u[23] + 448 u[24] + 649 u[25] + 300 u[26]
   + 4 u[27] + 160 u[28] + 325 u[29] + 756 u[30] + 78 u[31] + 217 u[32]
   + 468 u[33] + 760 u[34] + 892 u[35] + 557 u[36] + 32 u[37] + 174 u[38]
   + 187 u[39] <= 6245
 primal_lower2: - 86 y[0] - 47 y[1] - 56 y[2] - 3 y[3] - 51 y[4] - 47 y[5]
   - 173 y[6] - 132 y[7] - 151 y[8] - 104 y[9] - 22 y[10] - 105 y[11]
   - 99 y[12] - 88 y[13] - 110 y[14] - 98 y[15] - 80 y[16] - 130 y[17]
   - 58 y[18] - 59 y[19] - 151 y[20] - 68 y[21] - 166 y[22] - 19 y[23]
   - 144 y[24] - 160 y[25] - 74 y[26] - 163 y[27] - 87 y[28] - 6 y[29]
   - 173 y[30] - 168 y[31] - 48 y[32] - 110 y[33] - 68 y[34] - 115 y[35]
   - 118 y[36] - 14 y[37] - 89 y[38] - 177 y[39] + 970 u[0] + 919 u[1]
   + 883 u[2] + 763 u[3] + 853 u[4] + 137 u[5] + 74 u[6] + 857 u[7]
   + 159 u[8] + 826 u[9] + 488 u[10] + 942 u[11] + 432 u[12] + 362 u[13]
   + 202 u[14] + 624 u[15] + 184 u[16] + 231 u[17] + 625 u[18] + 311 u[19]
   + 182 u[20] + 472 u[21] + 714 u[22] + 288 u[23] + 495 u[24] + 412 u[25]
   + 875 u[26] + 711 u[27] + 823 u[28] + 264 u[29] + 995 u[30] + 273 u[31]
   + 16 u[32] + 959 u[33] + 951 u[34] + 791 u[35] + 908 u[36] + 499 u[37]
   + 461 u[38] + 14 u[39] <= 7315
 primal_lower3: - 10 y[0] - 9 y[1] - 8 y[2] - 13 y[3] - 13 y[4] - 11 y[5]
   - 5 y[6] - 13 y[7] - 5 y[8] - 3 y[9] - 16 y[10] - 4 y[11] - 7 y[12]
   - 14 y[13] - 24 y[14] - 4 y[15] - 14 y[16] - 14 y[17] - 2 y[18]
   - 3 y[19] - 15 y[21] - 2 y[22] - 10 y[23] - 24 y[24] - 5 y[25] - 8 y[26]
   - 23 y[27] - 15 y[28] - 6 y[29] - 2 y[30] - 12 y[31] - 21 y[32]
   - 11 y[33] - 9 y[34] - 2 y[35] - 24 y[36] - 19 y[37] - 9 y[38]
   - 13 y[39] + 211 u[0] + 940 u[1] + 572 u[2] + 256 u[3] + 638 u[4]
   + 742 u[5] + 291 u[6] + 614 u[7] + 312 u[8] + 855 u[9] + u[10]
   + 419 u[11] + 785 u[12] + 415 u[13] + 283 u[14] + 213 u[15] + 185 u[16]
   + 396 u[17] + 570 u[18] + 980 u[19] + 999 u[20] + 77 u[21] + 187 u[22]
   + 997 u[23] + 944 u[24] + 329 u[25] + 84 u[26] + 964 u[27] + 936 u[28]
   + 341 u[29] + 612 u[30] + 894 u[31] + 601 u[32] + 180 u[33] + 696 u[34]
   + 188 u[35] + 85 u[36] + 248 u[37] + 454 u[38] + 299 u[39] <= 999
 primal_lower4: - 60 y[0] - 73 y[1] - 74 y[2] - 168 y[3] - 26 y[4]
   - 83 y[5] - 87 y[6] - 75 y[7] - 174 y[8] - 14 y[9] - 91 y[10] - 92 y[11]
   - 88 y[12] - 88 y[13] - 8 y[14] - 72 y[15] - 50 y[16] - 46 y[17]
   - 86 y[18] - 36 y[19] - 63 y[20] - 25 y[21] - 57 y[22] - 5 y[23]
   - 60 y[24] - 158 y[25] - 43 y[26] - 112 y[27] - 78 y[28] - 64 y[29]
   - 118 y[30] - 93 y[31] - 115 y[32] - 131 y[33] - 7 y[34] - 133 y[35]
   - 102 y[36] - 148 y[37] - 16 y[38] - 19 y[39] + 812 u[0] + 937 u[1]
   + 525 u[2] + 397 u[3] + 479 u[4] + 195 u[5] + 564 u[6] + 571 u[7]
   + 937 u[8] + 612 u[9] + 186 u[10] + 624 u[11] + 698 u[12] + 756 u[13]
   + 684 u[14] + 826 u[15] + 722 u[16] + 17 u[17] + 59 u[18] + 593 u[19]
   + 936 u[20] + 10 u[21] + 948 u[22] + 874 u[23] + 849 u[24] + 534 u[25]
   + 429 u[26] + 961 u[27] + 257 u[28] + 306 u[29] + 933 u[30] + 267 u[31]
   + 426 u[32] + 377 u[33] + 241 u[34] + 825 u[35] + 630 u[36] + 341 u[37]
   + 199 u[38] + 280 u[39] <= 7272
 primal_lower5: - 10 y[0] - 5 y[1] - 6 y[2] - 18 y[3] - 17 y[4] - 14 y[5]
   - 12 y[6] - 23 y[7] - 6 y[8] - 14 y[10] - 13 y[11] - 10 y[12] - 5 y[13]
   - 3 y[14] - 21 y[15] - 4 y[16] - 24 y[17] - 9 y[18] - 19 y[19]
   - 22 y[20] - 5 y[21] - y[22] - y[23] - 19 y[24] - 8 y[25] - 10 y[26]
   - 5 y[27] - 19 y[28] - 19 y[29] - y[30] - 22 y[31] - 17 y[32] - 13 y[33]
   - 16 y[34] - 14 y[35] - 23 y[36] - 2 y[37] - 15 y[38] - 17 y[39]
   + 180 u[0] + 962 u[1] + 600 u[2] + 651 u[3] + 622 u[4] + 268 u[5]
   + 759 u[6] + 576 u[7] + 896 u[8] + 294 u[9] + 462 u[10] + 981 u[11]
   + 593 u[12] + 726 u[13] + 952 u[14] + 120 u[15] + 833 u[16] + 123 u[17]
   + 902 u[18] + 503 u[19] + 208 u[20] + 683 u[21] + 431 u[22] + 943 u[23]
   + 352 u[24] + 39 u[25] + 520 u[26] + 174 u[27] + 393 u[28] + 67 u[29]
   + 89 u[30] + 584 u[31] + 897 u[32] + 954 u[33] + 532 u[34] + 182 u[35]
   + 221 u[36] + 183 u[37] + 602 u[38] + 862 u[39] <= 981
 primal_lower6: - 14 y[0] - 17 y[1] - 15 y[2] - 9 y[3] - 24 y[4] - 6 y[5]
   - 2 y[6] - 18 y[7] - 18 y[8] - 4 y[9] - 11 y[10] - 19 y[11] - 3 y[12]
   - 17 y[13] - 8 y[14] - 23 y[15] - 6 y[16] - 14 y[17] - 2 y[18] - 8 y[19]
   - 12 y[20] - 4 y[21] - 3 y[22] - 9 y[23] - 16 y[24] - 19 y[25]
   - 19 y[26] - 14 y[27] - 6 y[28] - 14 y[29] - 3 y[30] - 10 y[31] - y[32]
   - y[33] - 19 y[34] - 17 y[35] - 5 y[36] - 7 y[37] - 10 y[38] - 11 y[39]
   + 76 u[0] + 866 u[1] + 368 u[2] + 179 u[3] + 566 u[4] + 572 u[5]
   + 775 u[6] + 64 u[7] + 296 u[8] + 494 u[9] + 966 u[10] + 885 u[11]
   + 681 u[12] + 590 u[13] + 744 u[14] + 128 u[15] + 865 u[16] + 211 u[17]
   + 486 u[18] + 495 u[19] + 152 u[20] + 931 u[21] + 807 u[22] + 943 u[23]
   + 616 u[24] + 831 u[25] + 16 u[26] + 246 u[27] + 321 u[28] + 939 u[29]
   + 97 u[30] + 24 u[31] + 225 u[32] + 522 u[33] + 148 u[34] + 94 u[35]
   + 893 u[36] + 151 u[37] + 242 u[38] + 606 u[39] <= 966
 primal_lower7: - 135 y[0] - 114 y[1] - 151 y[2] - 66 y[3] - 21 y[4]
   - 123 y[5] - 13 y[6] - 62 y[7] - 143 y[8] - 156 y[9] - 37 y[10]
   - 117 y[11] - 50 y[12] - 103 y[13] - 68 y[14] - 118 y[15] - 96 y[16]
   - 57 y[18] - 154 y[19] - 72 y[20] - 67 y[21] - 142 y[22] - 65 y[23]
   - 130 y[24] - 52 y[25] - 6 y[26] - 148 y[27] - 69 y[28] - 169 y[29]
   - 22 y[30] - 152 y[31] - 41 y[32] - 140 y[33] - 33 y[34] - 96 y[35]
   - 73 y[36] - 37 y[37] - 78 y[38] - 35 y[39] + 223 u[0] + 792 u[1]
   + 896 u[2] + 724 u[3] + 722 u[4] + 378 u[5] + 535 u[6] + 842 u[7]
   + 388 u[8] + 307 u[9] + 21 u[10] + 863 u[11] + 421 u[12] + 275 u[13]
   + 271 u[14] + 921 u[15] + 77 u[16] + 64 u[17] + 726 u[18] + 504 u[19]
   + 235 u[20] + 881 u[21] + 807 u[22] + 881 u[23] + 252 u[24] + 581 u[25]
   + 96 u[26] + 880 u[27] + 68 u[28] + 961 u[29] + 504 u[30] + 730 u[31]
   + 397 u[32] + 560 u[33] + 868 u[34] + 168 u[35] + 505 u[36] + 492 u[37]
   + 210 u[38] + 647 u[39] <= 6891
 primal_lower8: - 18 y[0] - 18 y[1] - 9 y[2] - 15 y[3] - 3 y[4] - 15 y[5]
   - 23 y[6] - 6 y[7] - 9 y[8] - 12 y[9] - 8 y[10] - 7 y[11] - 2 y[12]
   - 12 y[13] - 23 y[14] - 4 y[15] - 11 y[16] - 23 y[17] - 10 y[18]
   - 7 y[19] - y[20] - 23 y[21] - 21 y[22] - 8 y[23] - 14 y[24] - 11 y[25]
   - 17 y[26] - 14 y[27] - 4 y[28] - 18 y[29] - 21 y[30] - 2 y[31]
   - 13 y[32] - y[33] - 16 y[34] - 9 y[35] - 8 y[36] - 14 y[37] - 16 y[38]
   - 16 y[39] + 42 u[0] + 656 u[1] + 606 u[2] + 457 u[3] + 148 u[4]
   + 282 u[5] + 277 u[6] + 558 u[7] + 646 u[8] + 172 u[9] + 732 u[10]
   + 299 u[11] + 503 u[12] + 460 u[13] + 710 u[14] + 686 u[15] + 991 u[16]
   + 161 u[17] + 692 u[18] + 661 u[19] + 614 u[20] + 121 u[21] + 645 u[22]
   + 333 u[23] + 510 u[24] + 717 u[25] + 542 u[26] + 756 u[27] + 7 u[28]
   + 361 u[29] + 343 u[30] + 6 u[31] + 559 u[32] + 216 u[33] + 258 u[34]
   + 204 u[35] + 131 u[36] + 981 u[37] + 800 u[38] + 516 u[39] <= 991
 primal_lower9: - 14 y[0] - 2 y[2] - 18 y[3] - 21 y[4] - 8 y[5] - 6 y[6]
   - 12 y[7] - 5 y[8] - 19 y[10] - 17 y[11] - 7 y[12] - 9 y[13] - 13 y[14]
   - y[15] - 21 y[16] - 15 y[17] - 17 y[18] - 12 y[19] - 6 y[20] - 4 y[21]
   - 21 y[22] - 11 y[23] - 23 y[24] - 16 y[25] - 17 y[26] - 14 y[27]
   - 9 y[28] - 8 y[29] - 8 y[30] - 9 y[31] - 2 y[32] - 6 y[33] - 19 y[34]
   - 18 y[35] - 16 y[36] - 15 y[37] - 20 y[38] - 2 y[39] + 553 u[0]
   + 659 u[1] + 317 u[2] + 932 u[3] + 747 u[4] + 477 u[5] + 444 u[6]
   + 473 u[7] + 773 u[8] + 183 u[9] + 659 u[10] + 222 u[11] + 46 u[12]
   + 463 u[13] + 173 u[14] + 185 u[15] + 422 u[16] + 540 u[17] + 915 u[18]
   + 304 u[19] + 957 u[20] + 724 u[21] + 844 u[22] + 440 u[23] + 421 u[24]
   + 576 u[25] + 725 u[26] + 679 u[27] + 750 u[28] + 36 u[29] + 702 u[30]
   + 345 u[31] + 726 u[32] + 355 u[33] + 201 u[34] + 863 u[35] + 194 u[36]
   + 384 u[37] + 631 u[38] + 551 u[39] <= 957
 mccormick1[0]: - u[0] + z[0] <= 0
 mccormick1[1]: - u[1] + z[1] <= 0
 mccormick1[2]: - u[2] + z[2] <= 0
 mccormick1[3]: - u[3] + z[3] <= 0
 mccormick1[4]: - u[4] + z[4] <= 0
 mccormick1[5]: - u[5] + z[5] <= 0
 mccormick1[6]: - u[6] + z[6] <= 0
 mccormick1[7]: - u[7] + z[7] <= 0
 mccormick1[8]: - u[8] + z[8] <= 0
 mccormick1[9]: - u[9] + z[9] <= 0
 mccormick1[10]: - u[10] + z[10] <= 0
 mccormick1[11]: - u[11] + z[11] <= 0
 mccormick1[12]: - u[12] + z[12] <= 0
 mccormick1[13]: - u[13] + z[13] <= 0
 mccormick1[14]: - u[14] + z[14] <= 0
 mccormick1[15]: - u[15] + z[15] <= 0
 mccormick1[16]: - u[16] + z[16] <= 0
 mccormick1[17]: - u[17] + z[17] <= 0
 mccormick1[18]: - u[18] + z[18] <= 0
 mccormick1[19]: - u[19] + z[19] <= 0
 mccormick1[20]: - u[20] + z[20] <= 0
 mccormick1[21]: - u[21] + z[21] <= 0
 mccormick1[22]: - u[22] + z[22] <= 0
 mccormick1[23]: - u[23] + z[23] <= 0
 mccormick1[24]: - u[24] + z[24] <= 0
 mccormick1[25]: - u[25] + z[25] <= 0
 mccormick1[26]: - u[26] + z[26] <= 0
 mccormick1[27]: - u[27] + z[27] <= 0
 mccormick1[28]: - u[28] + z[28] <= 0
 mccormick1[29]: - u[29] + z[29] <= 0
 mccormick1[30]: - u[30] + z[30] <= 0
 mccormick1[31]: - u[31] + z[31] <= 0
 mccormick1[32]: - u[32] + z[32] <= 0
 mccormick1[33]: - u[33] + z[33] <= 0
 mccormick1[34]: - u[34] + z[34] <= 0
 mccormick1[35]: - u[35] + z[35] <= 0
 mccormick1[36]: - u[36] + z[36] <= 0
 mccormick1[37]: - u[37] + z[37] <= 0
 mccormick1[38]: - u[38] + z[38] <= 0
 mccormick1[39]: - u[39] + z[39] <= 0
 mccormick2[0]: - y[0] + z[0] <= 0
 mccormick2[1]: - y[1] + z[1] <= 0
 mccormick2[2]: - y[2] + z[2] <= 0
 mccormick2[3]: - y[3] + z[3] <= 0
 mccormick2[4]: - y[4] + z[4] <= 0
 mccormick2[5]: - y[5] + z[5] <= 0
 mccormick2[6]: - y[6] + z[6] <= 0
 mccormick2[7]: - y[7] + z[7] <= 0
 mccormick2[8]: - y[8] + z[8] <= 0
 mccormick2[9]: - y[9] + z[9] <= 0
 mccormick2[10]: - y[10] + z[10] <= 0
 mccormick2[11]: - y[11] + z[11] <= 0
 mccormick2[12]: - y[12] + z[12] <= 0
 mccormick2[13]: - y[13] + z[13] <= 0
 mccormick2[14]: - y[14] + z[14] <= 0
 mccormick2[15]: - y[15] + z[15] <= 0
 mccormick2[16]: - y[16] + z[16] <= 0
 mccormick2[17]: - y[17] + z[17] <= 0
 mccormick2[18]: - y[18] + z[18] <= 0
 mccormick2[19]: - y[19] + z[19] <= 0
 mccormick2[20]: - y[20] + z[20] <= 0
 mccormick2[21]: - y[21] + z[21] <= 0
 mccormick2[22]: - y[22] + z[22] <= 0
 mccormick2[23]: - y[23] + z[23] <= 0
 mccormick2[24]: - y[24] + z[24] <= 0
 mccormick2[25]: - y[25] + z[25] <= 0
 mccormick2[26]: - y[26] + z[26] <= 0
 mccormick2[27]: - y[27] + z[27] <= 0
 mccormick2[28]: - y[28] + z[28] <= 0
 mccormick2[29]: - y[29] + z[29] <= 0
 mccormick2[30]: - y[30] + z[30] <= 0
 mccormick2[31]: - y[31] + z[31] <= 0
 mccormick2[32]: - y[32] + z[32] <= 0
 mccormick2[33]: - y[33] + z[33] <= 0
 mccormick2[34]: - y[34] + z[34] <= 0
 mccormick2[35]: - y[35] + z[35] <= 0
 mccormick2[36]: - y[36] + z[36] <= 0
 mccormick2[37]: - y[37] + z[37] <= 0
 mccormick2[38]: - y[38] + z[38] <= 0
 mccormick2[39]: - y[39] + z[39] <= 0
 mccormick3[0]: y[0] + u[0] - z[0] <= 1
 mccormick3[1]: y[1] + u[1] - z[1] <= 1
 mccormick3[2]: y[2] + u[2] - z[2] <= 1
 mccormick3[3]: y[3] + u[3] - z[3] <= 1
 mccormick3[4]: y[4] + u[4] - z[4] <= 1
 mccormick3[5]: y[5] + u[5] - z[5] <= 1
 mccormick3[6]: y[6] + u[6] - z[6] <= 1
 mccormick3[7]: y[7] + u[7] - z[7] <= 1
 mccormick3[8]: y[8] + u[8] - z[8] <= 1
 mccormick3[9]: y[9] + u[9] - z[9] <= 1
 mccormick3[10]: y[10] + u[10] - z[10] <= 1
 mccormick3[11]: y[11] + u[11] - z[11] <= 1
 mccormick3[12]: y[12] + u[12] - z[12] <= 1
 mccormick3[13]: y[13] + u[13] - z[13] <= 1
 mccormick3[14]: y[14] + u[14] - z[14] <= 1
 mccormick3[15]: y[15] + u[15] - z[15] <= 1
 mccormick3[16]: y[16] + u[16] - z[16] <= 1
 mccormick3[17]: y[17] + u[17] - z[17] <= 1
 mccormick3[18]: y[18] + u[18] - z[18] <= 1
 mccormick3[19]: y[19] + u[19] - z[19] <= 1
 mccormick3[20]: y[20] + u[20] - z[20] <= 1
 mccormick3[21]: y[21] + u[21] - z[21] <= 1
 mccormick3[22]: y[22] + u[22] - z[22] <= 1
 mccormick3[23]: y[23] + u[23] - z[23] <= 1
 mccormick3[24]: y[24] + u[24] - z[24] <= 1
 mccormick3[25]: y[25] + u[25] - z[25] <= 1
 mccormick3[26]: y[26] + u[26] - z[26] <= 1
 mccormick3[27]: y[27] + u[27] - z[27] <= 1
 mccormick3[28]: y[28] + u[28] - z[28] <= 1
 mccormick3[29]: y[29] + u[29] - z[29] <= 1
 mccormick3[30]: y[30] + u[30] - z[30] <= 1
 mccormick3[31]: y[31] + u[31] - z[31] <= 1
 mccormick3[32]: y[32] + u[32] - z[32] <= 1
 mccormick3[33]: y[33] + u[33] - z[33] <= 1
 mccormick3[34]: y[34] + u[34] - z[34] <= 1
 mccormick3[35]: y[35] + u[35] - z[35] <= 1
 mccormick3[36]: y[36] + u[36] - z[36] <= 1
 mccormick3[37]: y[37] + u[37] - z[37] <= 1
 mccormick3[38]: y[38] + u[38] - z[38] <= 1
 mccormick3[39]: y[39] + u[39] - z[39] <= 1
Bounds
Binaries
 y[0] y[1] y[2] y[3] y[4] y[5] y[6] y[7] y[8] y[9] y[10] y[11] y[12] y[13]
 y[14] y[15] y[16] y[17] y[18] y[19] y[20] y[21] y[22] y[23] y[24] y[25]
 y[26] y[27] y[28] y[29] y[30] y[31] y[32] y[33] y[34] y[35] y[36] y[37]
 y[38] y[39] u[0] u[1] u[2] u[3] u[4] u[5] u[6] u[7] u[8] u[9] u[10] u[11]
 u[12] u[13] u[14] u[15] u[16] u[17] u[18] u[19] u[20] u[21] u[22] u[23]
 u[24] u[25] u[26] u[27] u[28] u[29] u[30] u[31] u[32] u[33] u[34] u[35]
 u[36] u[37] u[38] u[39] z[0] z[1] z[2] z[3] z[4] z[5] z[6] z[7] z[8] z[9]
 z[10] z[11] z[12] z[13] z[14] z[15] z[16] z[17] z[18] z[19] z[20] z[21]
 z[22] z[23] z[24] z[25] z[26] z[27] z[28] z[29] z[30] z[31] z[32] z[33]
 z[34] z[35] z[36] z[37] z[38] z[39]
End
